data;
set WEIGHTS := x0 x1 x2 x3 x4 x5 x6 x7 x8 x9 x10 x11 x12 x13 x14 x15 x16 x17 x18 x19;
param:  cost :=
  x0  420
  x1  421
  x2  422
  x3  423
  x4  424
  x5  425
  x6  426
  x7  427
  x8  428
  x9  429
  x10  430
  x11  431
  x12  432
  x13  433
  x14  434
  x15  435
  x16  436
  x17  437
  x18  438
  x19  439;
param cap := 4180;